2724
500000
333131
333131
333131
332224
332224
332224
332224
332224
332224
332224
332224
332224
332224
332224
332224
332224
332224
332224
332224
332224
332159
332159
332159
332159
332159
332159
332159
331982
331982
331982
331982
331982
331982
331339
331339
331339
331339
331339
331339
331339
331339
331339
331339
331339
331339
331339
331339
331339
331339
331296
331296
331296
331296
331179
331179
331179
331179
331179
331179
331179
331179
331179
331179
331179
331179
331179
331179
331179
331179
331179
331179
331179
330003
330003
330003
330003
330003
327732
327732
327732
327732
327732
327732
327732
327732
327732
327732
327732
327732
327732
327732
325823
325823
325823
325823
325823
325823
325823
325823
325823
325823
325823
325823
324008
324008
324008
324008
324008
324008
324008
324008
324008
324008
324008
324008
324008
324008
324008
324008
324008
324008
324008
322964
322964
322964
322964
322964
322964
322964
322964
322964
322964
322964
322964
322964
322964
321260
321260
321260
321260
321260
321260
321260
321260
321260
321260
321260
321260
321260
321260
321260
321260
320593
320593
320593
320593
320593
320593
320593
320593
320593
320593
320593
320593
320593
320593
320593
320593
320593
320593
320593
320593
320588
320588
320588
320588
320588
320588
320588
320588
320588
320588
320588
320588
320588
320588
320220
320220
320220
320220
320220
318914
318914
318914
318914
318914
318914
318914
318914
318914
318914
318914
318914
318914
318914
318914
318914
318914
318914
318914
317710
314190
314190
314190
314190
314190
314190
314190
314190
314190
312996
312996
312996
312996
312996
312996
312996
312996
312996
312996
312996
312352
312352
312352
312352
312352
312156
312156
312156
312156
312156
312156
312156
312156
312156
312156
312156
312156
312156
312156
312156
312156
312156
312156
308574
308574
308574
308574
308574
308574
308574
307226
307226
307226
307226
307226
307226
307226
303543
303543
303543
303543
303543
303543
303543
303543
303543
303543
303543
303543
303543
303543
303543
303543
299405
299405
299405
299405
299405
299405
299405
299405
299405
299405
299405
299405
299405
299405
299405
299405
299405
299405
299405
299405
298213
298213
298213
298213
298213
298213
297892
297892
297892
297892
297892
297892
297892
297892
297892
297892
297892
297892
296642
296642
296602
296602
296602
296602
296602
296602
296602
296602
296602
296602
296602
296602
296602
296602
296602
296602
296602
296602
296602
295215
295215
295215
295215
295215
295215
295215
293465
293465
293465
293465
293465
293465
293465
293465
293465
291382
291382
291382
291382
291382
291382
291382
291382
291382
291382
291382
291382
291382
291382
291382
288578
288578
287733
286350
285902
285902
285902
285902
285902
285902
285902
285902
285902
285902
284605
284605
284605
284605
284605
284605
284605
284605
284605
284605
284605
284446
284446
284446
284446
284446
284446
284446
284446
284446
284446
284446
284446
284446
284446
284446
284405
284405
284405
284405
284405
284405
284405
283318
283318
283318
283318
283318
283318
283318
283318
283318
283318
283318
283318
283318
283318
283135
283135
283135
283135
283135
283135
283135
283135
283135
282139
282139
282139
282139
282139
282139
282139
282139
282139
282139
282139
281794
281794
280023
280023
280023
280023
280023
280023
280023
280023
280023
280023
279454
279454
279454
279454
279454
279454
279454
279454
279454
279454
277189
277189
277189
277189
277189
277189
277189
277189
277189
277189
277189
277189
277189
277189
277189
277189
277189
277189
277189
277189
275841
275841
275841
275841
275841
275841
275841
275841
275841
275783
275783
275783
275783
275783
275783
275783
275783
275783
275783
275783
275783
275783
275783
275783
275783
275783
275783
275783
275654
275654
275654
275654
275654
275654
275654
275654
275654
275654
275654
275169
275169
275169
275169
275169
275169
275169
273490
273490
273490
272171
272171
272171
272171
272171
272171
272171
272171
272171
272171
272171
272171
272171
272171
272171
272171
271282
271282
271282
271282
271282
271282
270705
270705
270705
270705
270705
270705
270705
270705
268371
268371
267975
267975
267975
267975
267975
267975
267975
267975
267975
267975
267975
267975
267975
267975
267975
267855
267855
267855
267855
267855
267855
267743
267743
267743
267743
267743
267743
267743
267371
267371
267371
267371
267371
267371
266928
266928
266928
266928
266928
266928
266928
266928
266928
266928
266928
266928
266928
266928
266928
266928
266928
266928
266928
266928
266025
266025
266025
266025
266025
266025
266025
266025
266025
266025
265345
265345
265345
265164
265164
265164
265164
265164
265164
265164
265164
265164
265118
265118
265118
265118
265118
265118
265118
265118
265118
264905
264905
264905
264905
264905
264905
264905
264905
264905
264905
264711
264711
264711
264711
264711
264711
264711
264711
264711
264711
263911
263911
263911
263911
263911
263911
259461
259461
259461
259461
259461
259461
259461
259461
256936
256936
256936
256936
256936
256936
256936
256936
256936
256936
256936
256936
256936
256936
256936
256936
256127
256127
256127
256127
256127
256127
256127
256127
256127
256127
256127
256127
256127
256127
256127
256127
256127
254726
254726
254726
254726
254726
254726
254726
254726
254726
254726
254726
254726
254726
254726
254726
254726
254726
254726
254726
254726
254523
254523
254523
254523
254523
254523
254523
254523
254523
254069
254069
254069
254069
254069
254069
254069
254069
254069
254069
254069
254069
251466
251466
251466
251466
251466
251466
251372
251372
251372
251372
251372
251372
251372
251372
251372
251372
248727
248727
248727
248727
248727
248727
248727
248727
248727
248727
248727
248727
248727
248727
248727
248727
248727
246750
246750
246750
246750
246750
246750
246750
246750
246750
246750
246750
246750
246750
246750
246750
246750
246750
246750
246750
245847
245847
245847
245847
245847
245847
245847
245847
245847
245847
245847
245847
245847
245847
245847
245847
245847
245847
245847
245847
243179
243179
243179
243179
243179
243179
243179
243179
243179
243179
243179
243179
243020
243020
243020
243020
243020
243020
243020
243020
243020
243020
243020
243020
243020
243020
243020
243020
243020
243020
243020
242468
242468
242468
242468
242468
242468
242468
242468
242468
242468
242468
242468
242468
242468
242468
242468
242468
242468
242468
242468
241804
241804
241804
241804
241804
241804
241804
241804
241804
241804
241804
241804
241804
241804
241804
241804
241804
241804
241804
241804
241400
241400
241400
241400
241400
241400
241400
241400
241400
241400
241400
241400
241400
241400
241400
241400
241400
241400
237400
233720
233720
233720
233720
233720
233720
233720
233720
233720
233720
233720
233720
233720
233720
233720
233720
232230
232230
232230
232230
232230
232230
232230
232230
232230
232230
232230
232230
232230
232230
232230
232096
232096
232096
232096
232096
232096
232096
232096
231385
231385
229892
229892
228160
228160
228160
228160
228160
228160
228160
227934
227934
227934
227934
226698
226698
226698
226698
226698
226698
226698
226698
226698
226698
226698
226698
226698
226698
226698
226698
226698
226409
226409
226409
226409
226409
226409
226409
226409
226409
226409
226409
226409
226409
226409
226353
226353
226353
226353
226353
226353
226353
226353
226353
226353
226353
226353
226353
226353
226353
226353
226353
226353
226353
226353
226231
226231
226231
226231
226231
226231
226231
226231
226231
226231
226231
226231
226231
226231
226231
226231
226231
226231
226231
225127
225127
225127
225127
225127
223129
222945
222945
222945
222945
222945
222945
221131
221058
221058
221058
221058
221058
217475
217475
217475
217475
217475
217475
217475
217475
217475
217475
217475
217475
217475
217475
217299
217299
217299
217299
217299
217299
217299
217299
217299
214782
214782
214782
214782
214782
214782
214782
214782
214782
214782
214782
214782
214782
214782
214782
214782
214782
214782
214782
210506
210506
210506
210506
210506
210506
210506
210506
209754
209754
209754
209754
209754
209754
209754
209754
208448
208448
208448
208448
208448
208448
208448
208448
208448
208448
208448
208448
208448
208448
208448
206002
206002
206002
206002
206002
206002
204491
204491
204491
204491
204491
204491
204491
204491
204491
204491
204491
204491
204491
204491
204491
204491
204491
204491
204491
203717
203717
203717
203717
203717
203717
203717
203717
203717
203717
203717
203717
203717
203717
203717
203717
203717
203717
200678
200678
200678
198881
198881
198881
198881
198881
198881
198881
198881
198881
198881
198881
198881
198881
198881
198881
198881
198881
198390
198390
198390
198390
198390
198390
198390
198390
198390
198390
198390
198390
198390
198100
198100
198100
198100
198100
198100
198100
198100
198100
198100
197759
197759
197123
197123
197123
197123
197123
197123
197123
197123
197123
197123
197123
197123
197123
197123
197123
197123
194809
194809
194809
194809
194809
194809
194809
194809
194809
194809
194809
194809
194809
194809
194809
194809
194809
194809
194809
194809
192876
192876
192876
192876
192876
192876
192876
192876
192876
192876
192876
192876
192876
192876
192876
192876
190838
190838
190838
190838
190838
190838
190838
190838
190838
190838
190838
190838
190838
190838
190838
190838
190838
190838
190838
190721
188692
188692
188692
188692
188692
188692
187217
187217
187217
187217
187217
187217
187217
187217
187217
187217
187217
187217
187217
187217
187217
187217
187217
187217
187217
185884
185884
185884
185884
185884
185884
185884
185884
185884
185884
185276
185276
185276
185276
184261
184261
179971
179971
179971
179971
179971
179971
179971
179971
179971
179971
179971
179971
179971
179971
179971
179475
179475
179475
179475
179475
179475
179475
179475
179475
179475
179475
179475
179475
179475
179475
179475
179475
178485
178485
178485
178485
178485
178485
176064
176064
176064
176064
176064
176064
176064
173305
173305
173305
173305
171237
171237
171237
171237
171237
171237
171237
171237
171237
171237
170742
170742
170742
170742
170742
170742
167210
167210
167210
167210
167210
167210
167210
167210
167210
166247
166247
166247
166247
166247
166247
166247
166247
166247
166247
166247
166247
166247
166247
166247
166247
166247
166247
166230
166230
166230
165928
165928
165928
165928
165928
165928
165928
165928
165928
165928
165928
165928
165928
165928
165928
165928
165928
165928
165928
165928
159640
159640
159640
159553
159553
159553
159553
159553
159553
159553
159553
158802
158802
158802
158802
158802
158802
158802
158802
158802
158802
158802
158802
158802
158802
158802
157704
157704
157704
157704
157704
157704
157704
157704
157704
157704
157704
157704
157704
157704
154872
154872
154872
154872
154872
154872
154872
154872
154872
154872
154872
154872
154872
154872
154872
154872
154872
154872
154872
154872
154196
154196
154196
154196
154196
154196
154196
154196
154196
154196
154196
154196
154196
154196
154196
154196
154196
154196
154196
154196
152796
152796
152796
152796
152796
152796
152796
152796
152796
152796
152796
149461
149461
149461
149461
149461
149461
149461
149461
149461
149461
149461
149461
149461
149461
147189
147189
147189
146934
146934
146934
144746
144746
144746
144746
144746
144746
144746
144746
143007
143007
143007
143007
143007
143007
143007
143007
143007
143007
143007
143007
143007
143007
143007
143007
143007
143007
143007
140716
140716
140716
140716
140437
140437
140437
138563
138563
136949
136949
136949
136949
135846
135846
135846
135846
135846
135846
135846
135846
135846
135846
135846
135846
135846
135846
135846
133888
133643
133643
133643
133643
133643
133643
133643
133643
133643
132620
132620
132620
132620
132620
132620
132620
132620
132620
132620
132620
132620
132620
132620
132620
131566
131566
131566
131566
131566
131566
131566
131566
131566
128308
128308
128308
128308
128308
128308
128308
128308
128308
128308
128308
128308
128308
128308
128308
128308
128273
128273
128273
128273
128273
128273
128273
128273
128273
128273
128273
128273
128273
128273
128273
128273
128273
128273
128273
128273
128241
128241
128241
128241
128241
128241
128241
128241
128241
128241
128241
128241
126893
126893
126893
126893
126893
126893
126893
126893
126893
126893
126893
126893
126893
126893
126893
126893
126893
126285
126285
126285
125141
125141
125141
125141
125141
125141
125141
123306
123306
123306
123306
123306
123306
123306
123306
123306
123306
121308
121308
121308
121308
121308
121308
121308
118446
118446
118446
118446
118446
118446
118446
118446
118446
118446
118446
117673
117673
117673
117673
117673
117673
117673
117673
117673
117673
117673
117673
117673
117673
117673
117673
117673
117673
114603
114603
114603
114603
114603
114603
114603
114603
114603
114603
114603
114603
114603
113053
113053
113053
113053
113053
113053
113053
113053
113053
113053
113053
113053
113053
113053
112308
112308
112308
112308
110353
110353
110353
110353
110353
110353
110353
110353
110353
107551
107551
107551
107551
107551
107551
107551
107551
107551
107551
107551
107551
107551
105852
105852
105852
105852
105852
105852
105852
105852
101769
101769
101769
101769
101769
101769
101769
101769
101769
101769
101769
101769
101769
101769
101769
101769
101769
101769
101769
99801
99801
99801
99801
99801
99475
99475
99475
99475
99475
99475
99475
99475
99475
99475
99475
95867
95867
95867
95867
95867
95867
95867
95867
95867
95867
95867
95867
95867
95867
95867
95867
93780
93780
93780
93780
93780
93780
93780
93780
93780
93780
93780
93780
93780
93780
93780
93780
93698
93698
93698
93698
93698
93698
93698
93698
93698
93698
93698
93698
93698
93698
93698
93698
93698
93698
92163
92163
92163
92163
92163
92163
92163
92163
92163
92163
91867
91867
91867
91867
91867
91867
91867
91867
91867
91867
91867
91867
90424
90424
90424
90424
90424
90424
90424
90424
90424
90424
90424
90424
90424
90424
88676
88676
88676
88676
85703
85703
85703
85703
85703
85570
85570
85570
85570
85570
85570
85570
85570
85570
85570
85014
85014
85014
85014
85014
85014
85014
83384
83384
83384
83384
83384
83384
83384
83384
83384
83384
83384
83384
83384
83384
83384
83384
83050
83050
83050
83050
83050
83050
83050
83050
82862
82862
82862
82862
82862
82862
82862
82862
82862
82862
82862
82862
82862
80291
80291
80291
80291
80291
80291
80291
80291
80291
80291
80291
80291
78943
78943
78943
78943
78943
78943
78943
78943
78943
78943
78943
78943
78943
78943
78943
78943
78943
78943
78943
78943
78872
78872
78872
78872
78872
78872
78872
78872
78872
78872
78872
78872
77047
77047
77047
77047
77047
77047
77047
77047
77047
77047
77047
77047
77047
73079
72040
72040
72040
72040
72040
72040
72040
72040
72040
72040
72040
72040
72040
72040
69068
69068
69068
68959
68959
68959
65814
65814
65814
65814
65814
65814
65814
65814
65814
65814
65814
65814
65814
65814
65814
65814
64641
64641
64641
64641
64641
64641
63811
63811
63811
63811
63811
63811
63811
63811
63811
63811
63811
63811
62139
62139
62139
62139
62139
62139
62139
62139
62139
62139
62139
62139
62139
60333
60333
60333
60333
60333
60333
60333
60333
60333
60333
60333
60333
60333
60333
60333
58047
58047
58047
58047
58047
57252
57252
57252
57252
57252
57252
57252
57252
57252
57252
57252
57252
57252
57252
57252
57252
57252
57118
57118
57118
57118
57118
57118
57118
57118
57118
57118
57118
57118
57118
56773
56773
56773
56773
56773
56773
56773
56773
56773
56773
56773
56773
56773
55159
55159
55159
55159
55159
55159
55159
55159
55159
55159
55159
53230
53230
53230
53230
53230
53230
53230
53230
53230
53230
53230
53230
53230
53230
53230
53230
53230
53230
53230
53117
53117
53117
53117
53117
53117
53117
53117
51784
51784
51784
51784
51784
51784
51784
51784
51784
51784
51784
51784
50992
50992
50992
50992
50992
50992
50992
50992
50992
50992
50992
50992
46844
46844
46844
46844
46844
46844
46844
46844
46844
46844
46844
46844
46844
46844
46844
46844
46844
46844
44487
44487
44487
44487
44487
44487
42518
42518
42518
42518
42518
42518
42518
42061
42061
41309
41309
41309
41084
41084
41084
41084
41084
41084
41084
41084
41084
41084
41084
41084
41084
41084
41084
41084
41084
41084
41084
41084
38482
38482
38482
38482
38482
38482
38482
38482
38482
38482
38482
38482
38482
38482
38482
38482
38482
38482
38482
37796
37796
37796
37796
37796
37796
37796
37796
37796
37796
37796
37796
37796
37796
37796
37796
37796
36332
36332
36332
36332
36332
36332
36332
36332
36332
36332
36332
36332
36332
36332
36332
36332
35370
35370
35370
35370
35370
35370
35370
35370
35370
35370
34857
34857
34857
34857
34857
34857
34857
34857
34857
34857
34857
34857
33868
33868
33868
33868
33868
33868
33868
33868
33131
33131
33131
33131
33131
33131
33131
33131
33131
33131
31186
31186
31186
31186
31186
31186
31186
31186
31186
31186
31186
31186
31186
31186
31186
31186
31186
31186
31186
31186
30859
30859
30859
30859
30859
30859
30859
30859
30859
30859
30859
30859
30859
30859
30859
30859
30859
30533
30533
27958
27958
27958
27958
27958
27958
27958
27958
27958
27958
27958
27958
27958
26695
26695
26695
26695
26695
26695
26695
26695
26695
26695
26695
26634
26634
26634
26634
26634
26634
26634
26634
26634
26634
26634
26634
26634
26634
26634
26634
26634
26634
26634
25211
25211
25211
25211
25211
25211
25211
25211
25211
25211
25211
25211
25211
25211
25211
25211
25211
24514
24514
24514
24514
24514
24514
24514
24514
24514
24514
24514
24514
24514
24514
24514
24514
24514
22695
22695
22695
22695
22695
22695
22695
22695
22695
22695
22695
20059
20059
20059
20059
20059
20059
20059
20059
20059
20059
19530
19530
19530
19530
19530
19530
19530
19530
19530
19530
19530
19530
19530
19530
18121
18121
18121
18121
18121
18121
18121
18121
18121
17834
17834
17834
17834
17834
17834
17834
17834
17834
17834
17834
16992
16992
16992
16992
16992
16992
16992
16992
16992
16992
16992
16992
16992
16992
16992
16992
16992
16992
16862
16862
16862
16862
16862
16862
16862
16862
16862
16862
16862
16862
16862
16862
16862
16862
16862
16862
14414
14414
14414
14414
14414
14414
14414
14414
14414
14414
14414
14414
14414
14414
14414
14414
12937
12937
12146
12146
12146
12146
12146
12146
12146
12146
12146
12146
12146
11570
11570
11570
11570
11570
11451
11451
11451
11451
10161
10161
10161
10161
10161
10161
10161
10161
10161
10161
10161
10161
10161
10065
10065
10065
10065
10065
10065
10065
10065
10065
10065
10065
10065
10065
10065
10065
10065
10065
10065
10065
10065
7951
7670
7670
7670
5388
5388
5388
4042
4042
4042
4042
4042
4042
4042
4042
4042
4042
4042
